lattice_vector     -1.50000000      1.50000000      1.50000000
lattice_vector      1.50000000     -1.50000000      1.50000000
lattice_vector      1.50000000      1.50000000     -1.50000000
atom_frac      0.00000000      0.00000000      0.00000000 Fe
